% demand
num_movements = 21;
loading_factor = [950, 1100, 850, 1650, 1650, 1150, 900, 1100, 1150, 1050, 1950, 2000, 1350, 1450, 1650, 950, 1300, 1350, 1350, 1950, 2000];
pickup_time = [0, 0, 2, 2, 3, 3, 3, 3, 3, 3, 4, 4, 4, 5, 6, 6, 6, 6, 7, 7, 7];
delivery_time = [1, 3, 3, 3, 4, 4, 4, 4, 4, 4, 6, 6, 7, 6, 7, 7, 7, 7, 9, 8, 8];

% transporter definition
total_capacity = 7000;
num_decks = 3;
capacity = [3000, 1000, 3000];

% ways out of decks
num_ways_out = 1;
paths_out = array3d(decks, ways_out, decks, [
% ways out of deck d1
2, 3, 0, 

% ways out of deck d2
3, 0, 0, 

% ways out of deck d3
0, 0, 0,	

]);

